results_rootrelaxation/bin012_090_018.srr.sol
solution status: optimal solution found
objective value:                                   33
_var84_                             0.174089068825912 	(obj:4)
_var574_                            0.149797570850201 	(obj:4)
_var631_                              0.4251012145749 	(obj:5)
_var687_                            0.161943319838055 	(obj:4)
_var708_                           0.0485829959514166 	(obj:4)
_var722_                            0.161943319838055 	(obj:3)
_var723_                            0.161943319838058 	(obj:3)
_var730_                           0.0364372469635624 	(obj:4)
_var736_                            0.348178137651825 	(obj:2)
_var741_                           0.0566801619433199 	(obj:3)
_var753_                            0.263157894736842 	(obj:4)
_var755_                            0.238866396761134 	(obj:3)
_var756_                           0.0688259109311748 	(obj:3)
_var757_                            0.012145748987854 	(obj:3)
_var758_                          0.00404858299595542 	(obj:3)
_var760_                            0.506072874493926 	(obj:3)
_var761_                            0.133603238866397 	(obj:4)
_var764_                           0.0890688259109298 	(obj:4)
_var773_                            0.352226720647772 	(obj:1)
_var775_                           0.0283400809716621 	(obj:4)
_var789_                            0.218623481781378 	(obj:4)
_var790_                           0.0890688259109327 	(obj:3)
_var791_                           0.0607287449392682 	(obj:3)
_var794_                            0.412955465587042 	(obj:4)
_var795_                           0.0161943319838067 	(obj:2)
_var796_                            0.303643724696354 	(obj:5)
_var798_                            0.748987854251012 	(obj:2)
_var802_                           0.0931174089068826 	(obj:2)
_var805_                            0.251012145748988 	(obj:3)
_var806_                            0.469635627530363 	(obj:2)
_var810_                              0.4251012145749 	(obj:3)
_var812_                            0.251012145748988 	(obj:3)
_var814_                            0.587044534412954 	(obj:2)
_var822_                            0.417004048582998 	(obj:3)
_var823_                            0.558704453441293 	(obj:3)
_var824_                            0.412955465587042 	(obj:2)
_var826_                            0.251012145748988 	(obj:3)
_var828_                            0.161943319838058 	(obj:2)
_var830_                             0.31578947368421 	(obj:4)
_var833_                            0.133603238866393 	(obj:4)
_var834_                            0.016194331983806 	(obj:3)
_var836_                            0.412955465587045 	(obj:2)
_var837_                            0.242914979757086 	(obj:3)
_var838_                           0.0526315789473724 	(obj:4)
_var840_                           0.0485829959514162 	(obj:5)
_var841_                            0.141700404858301 	(obj:4)
_var842_                            0.251012145748988 	(obj:3)
_var845_                           0.0728744939271247 	(obj:3)
_var846_                           0.0404858299595132 	(obj:2)
_var857_                           0.0404858299595101 	(obj:3)
_var862_                           0.0809716599190294 	(obj:4)
